(set-option :produce-models true)
(set-logic QF_UF)
(declare-fun p14() Bool)
(declare-fun p45() Bool)
(declare-fun p39() Bool)
(declare-fun p9() Bool)
(declare-fun p27() Bool)
(declare-fun p41() Bool)
(declare-fun p11() Bool)
(declare-fun p19() Bool)
(declare-fun p37() Bool)
(declare-fun p28() Bool)
(declare-fun p48() Bool)
(declare-fun p6() Bool)
(declare-fun p59() Bool)
(declare-fun p12() Bool)
(declare-fun p5() Bool)
(declare-fun p50() Bool)
(declare-fun p17() Bool)
(declare-fun p31() Bool)
(declare-fun p18() Bool)
(declare-fun p13() Bool)
(declare-fun p22() Bool)
(declare-fun p35() Bool)
(declare-fun p24() Bool)
(declare-fun p44() Bool)
(declare-fun p20() Bool)
(declare-fun p55() Bool)
(declare-fun p23() Bool)
(declare-fun p46() Bool)
(declare-fun p47() Bool)
(declare-fun p21() Bool)
(declare-fun p26() Bool)
(declare-fun p57() Bool)
(declare-fun p53() Bool)
(declare-fun p29() Bool)
(declare-fun p4() Bool)
(declare-fun p3() Bool)
(declare-fun p7() Bool)
(declare-fun p34() Bool)
(declare-fun p49() Bool)
(declare-fun p2() Bool)
(declare-fun p25() Bool)
(declare-fun p51() Bool)
(declare-fun p0() Bool)
(declare-fun p40() Bool)
(declare-fun p16() Bool)
(declare-fun p43() Bool)
(declare-fun p10() Bool)
(declare-fun p1() Bool)
(declare-fun p33() Bool)
(declare-fun p56() Bool)
(declare-fun p58() Bool)
(declare-fun p54() Bool)
(declare-fun p38() Bool)
(declare-fun p42() Bool)
(declare-fun p52() Bool)
(declare-fun p36() Bool)
(declare-fun p15() Bool)
(declare-fun p32() Bool)
(declare-fun p8() Bool)
(declare-fun p30() Bool)
(assert
(and (or p14 p45 p39) (or (not p9) p27 p41) (or (not p11) p19 (not p41)) (or (not p37) p28 p48) (or (not p6) p59 p12) (or p14 p5 (not p50)) (or (not p37) (not p17) p37) (or p31 p18 p13) (or (not p22) p48 p59) (or (not p35) p37 (not p9)) (or p24 p6 (not p44)) (or (not p31) p22 (not p20)) (or p55 p11 (not p23)) (or (not p46) (not p47) (not p59)) (or (not p31) (not p21) p35) (or p26 p57 p53) (or p29 (not p45) (not p44)) (or p45 p24 p48) (or (not p6) (not p4) p27) (or p4 (not p3) p7) (or p48 (not p48) (not p34)) (or p57 (not p57) (not p22)) (or p49 p44 p17) (or p55 p2 (not p19)) (or (not p25) p47 p26) (or (not p51) p55 (not p29)) (or p26 p45 p41) (or p37 (not p51) (not p45)) (or (not p26) (not p22) (not p39)) (or (not p17) p31 (not p20)) (or (not p23) (not p59) p0) (or (not p59) (not p0) p50) (or (not p37) p13 p39) (or (not p47) (not p57) (not p40)) (or p16 (not p53) (not p48)) (or (not p0) (not p43) p10) (or p7 (not p6) p1) (or (not p33) p19 (not p5)) (or p9 (not p56) (not p49)) (or (not p56) (not p10) p51) (or (not p22) (not p51) (not p25)) (or p41 p39 (not p58)) (or p48 (not p40) (not p40)) (or p22 p57 (not p0)) (or p44 p12 p54) (or p33 p50 (not p3)) (or p43 (not p19) p47) (or (not p44) (not p38) (not p3)) (or p19 p6 (not p7)) (or (not p54) (not p33) p42) (or p41 p3 (not p53)) (or p52 p42 p45) (or (not p26) p2 p36) (or p52 p2 p38) (or p40 p35 (not p17)) (or p20 p51 (not p44)) (or p22 (not p38) p23) (or p15 p0 (not p0)) (or (not p58) p28 p35) (or (not p24) p49 (not p39)) (or (not p2) (not p35) p21) (or (not p0) (not p39) (not p12)) (or (not p28) p14 (not p25)) (or (not p2) (not p34) (not p47)) (or (not p53) (not p55) p35) (or (not p46) (not p3) (not p12)) (or p48 (not p22) (not p35)) (or (not p40) p25 (not p19)) (or (not p19) p42 (not p35)) (or p24 (not p21) p53) (or p10 p32 p39) (or (not p25) (not p8) p21) (or p2 (not p20) (not p44)) (or p22 p56 (not p2)) (or (not p27) (not p24) p17) (or (not p57) (not p2) p44) (or p55 p57 p9) (or p55 p35 p50) (or (not p42) (not p1) (not p16)) (or (not p53) (not p28) p29) (or (not p4) p45 (not p3)) (or p29 (not p27) p3) (or p49 p50 p1) (or (not p55) (not p37) (not p27)) (or p5 p58 p36) (or p38 (not p56) p1) (or (not p37) (not p51) (not p48)) (or p17 (not p45) p19) (or p4 p29 p9) (or p20 p57 p45) (or (not p14) p24 (not p22)) (or (not p6) p7 p17) (or (not p46) p42 p16) (or (not p17) (not p4) (not p13)) (or (not p17) (not p6) (not p10)) (or p18 p3 (not p50)) (or p53 p29 (not p51)) (or (not p41) (not p17) p25) (or p46 (not p26) (not p16)) (or p33 p53 (not p33)) (or p16 p30 (not p5)) (or p38 p34 (not p53)) (or p30 (not p33) (not p27)) (or (not p39) p57 (not p21)) (or (not p30) (not p19) p54) (or (not p14) p36 (not p31)) (or (not p7) p2 (not p54)) (or p24 p40 (not p41)) (or (not p51) (not p13) p56) (or p44 (not p26) (not p5)) (or p25 (not p19) p16) (or (not p31) (not p16) p4) (or p19 (not p28) p28) (or p27 p59 p31) (or p25 p6 p25) (or (not p58) (not p57) p4) (or p17 p41 p12) (or p37 p31 p18) (or (not p24) p2 p49) (or p3 p51 (not p30)) (or (not p41) (not p8) (not p59)) (or (not p51) (not p35) p32) (or (not p13) p19 p0) (or p10 (not p56) p56) (or p10 (not p23) (not p25)) (or p54 (not p57) (not p40)) (or p59 p32 (not p43)) (or p24 p51 (not p11)) (or p15 (not p49) p37) (or (not p20) p22 p39) (or p44 p30 p22) (or (not p16) (not p32) (not p33)) (or (not p36) p38 (not p1)) (or (not p41) p43 (not p2)) (or (not p59) p14 (not p51)) (or p18 (not p39) (not p18)) (or p38 (not p4) (not p59)) (or (not p46) p39 p23) (or p5 p41 p32) (or (not p39) (not p16) p19) (or (not p29) p21 (not p10)) (or p53 p28 (not p55)) (or (not p22) p36 (not p9)) (or (not p4) (not p20) (not p27)) (or (not p50) p17 p55) (or (not p59) (not p1) (not p46)) (or (not p10) (not p19) p25) (or p51 p14 (not p58)) (or (not p49) p51 (not p34)) (or p39 p8 (not p9)) (or (not p17) (not p0) (not p54)) (or p41 p36 p29) (or p23 p7 p9) (or p11 (not p53) p17) (or p56 (not p34) p48) (or (not p28) (not p21) p59) (or p13 p25 (not p0)) (or p32 (not p30) (not p9)) (or p55 (not p43) (not p11)) (or (not p52) p54 p26) (or (not p14) p5 p44) (or (not p44) (not p35) p54) (or p15 (not p12) (not p46)) (or (not p0) p5 (not p42)) (or p27 (not p32) p33) (or p4 p26 (not p39)) (or (not p24) (not p43) (not p33)) (or p5 p35 (not p33)) (or (not p14) p4 (not p30)) (or p6 (not p21) (not p32)) (or p16 (not p3) p13) (or p27 p21 (not p5)) (or p20 p8 (not p1)) (or (not p4) (not p12) p25) (or p55 p24 p19) (or (not p9) (not p53) (not p14)) (or p40 (not p27) p44) (or p46 (not p53) p48) (or (not p56) p49 p11) (or p1 (not p23) p19) (or (not p41) (not p3) (not p24)) (or p18 p38 p31) (or (not p28) (not p28) (not p32)) (or p14 (not p54) p34) (or p47 (not p18) (not p43)) (or (not p29) p57 (not p44)) (or p7 p45 p30) (or (not p12) p46 p17) (or p19 (not p40) p37) (or (not p23) (not p32) (not p31)) (or p16 (not p27) p27) (or p17 (not p32) p12) (or p53 (not p56) p25) (or p37 p4 (not p46)) (or (not p18) p57 (not p34)) (or p45 (not p49) p18) (or p32 p58 (not p19)) (or p47 (not p25) (not p49)) (or p0 p32 p25) (or (not p10) p57 p16) (or (not p49) p58 p15) (or p17 p53 p1) (or (not p29) p34 (not p59)) (or p11 p32 p45) (or (not p4) p27 p31) (or p22 p38 (not p34)) (or (not p55) (not p11) (not p31)) (or (not p30) p39 (not p49)) (or (not p12) (not p2) (not p2)) (or p16 (not p6) (not p57)) (or (not p54) p52 (not p36)) (or p49 (not p24) p32) (or p14 p14 p8) (or (not p3) (not p5) (not p16)) (or p38 (not p2) p6) (or p53 (not p32) (not p15)) (or (not p37) (not p49) (not p31)) (or (not p25) p25 (not p33)) (or p49 p4 p6) (or p54 (not p42) (not p57)) (or p25 (not p38) (not p44)) (or (not p52) p33 (not p47)) (or (not p22) p5 p38) (or (not p29) p5 (not p16)) (or (not p2) (not p11) (not p14)) (or p30 p5 (not p11)) (or p55 (not p16) (not p0)) (or (not p12) (not p59) p19) (or p11 (not p9) (not p49)) (or p54 (not p32) (not p28)) (or p10 (not p47) (not p12)) (or p15 p10 p25) (or p41 p58 (not p27)) (or p32 p44 (not p53)) (or p48 p0 p4) (or p43 p32 (not p21)) (or (not p42) (not p46) (not p58)) (or (not p12) (not p38) p19) (or (not p38) p14 p9) (or p31 p38 p9) (or (not p51) (not p59) (not p49)) (or p56 (not p53) (not p57)) (or (not p57) p48 (not p29)) (or p33 (not p54) p0) (or (not p27) p16 (not p51)) (or (not p7) p57 (not p19)) (or (not p13) (not p39) (not p45)) (or p39 (not p54) p59) (or p45 p21 p30) (or p46 (not p14) (not p0)) (or (not p19) (not p3) p20) (or p35 p41 p28))
)
(check-sat)
(get-model)
